SDVRP instances/custom_instances/p04_23_splitx10_0.vrp
NAME:p04_23_splitx10_
BEST_KNOWN: 0
COMMENT: 0
DIMENSION: 723
CAPACITY: 2000
EDGE_WEIGHT_FORMAT: FUNCTION
EDGE_WEIGHT_TYPE: EXACT_2D
NODE_COORD_SECTION
1 0.00000 0.00000
2 28 -27
3 28 -27
4 28 -27
5 28 -27
6 -31 -36
7 -31 -36
8 -31 -36
9 -31 -36
10 -31 -36
11 -31 -36
12 6 42
13 6 42
14 50 -38
15 50 -38
16 50 -38
17 50 -38
18 50 -38
19 14 -12
20 14 -12
21 14 -12
22 14 -12
23 14 -12
24 14 -12
25 14 -12
26 -46 -2
27 -46 -2
28 -46 -2
29 -46 -2
30 -46 -2
31 26 3
32 26 3
33 26 3
34 26 3
35 26 3
36 26 3
37 26 3
38 17 35
39 17 35
40 17 35
41 17 35
42 17 35
43 17 35
44 17 35
45 22 -2
46 22 -2
47 22 -2
48 22 -2
49 22 -2
50 22 -2
51 -46 -3
52 -46 -3
53 -46 -3
54 -46 -3
55 -46 -3
56 -40 -14
57 -40 -14
58 -40 -14
59 39 -16
60 39 -16
61 39 -16
62 19 -41
63 19 -41
64 -20 23
65 -20 23
66 -20 23
67 -15 11
68 -15 11
69 -15 11
70 -15 11
71 -15 11
72 34 -28
73 34 -28
74 11 38
75 11 38
76 11 38
77 11 38
78 11 38
79 11 38
80 33 12
81 33 12
82 -39 -18
83 -39 -18
84 -39 -18
85 -39 -18
86 -39 -18
87 -19 17
88 -19 17
89 -19 17
90 -19 17
91 -19 17
92 -19 17
93 -32 -50
94 -32 -50
95 -32 -50
96 -32 -50
97 -32 -50
98 13 26
99 13 26
100 13 26
101 41 42
102 41 42
103 41 42
104 41 42
105 -21 -32
106 -21 -32
107 -21 -32
108 -21 -32
109 4 -14
110 4 -14
111 4 -14
112 4 -14
113 31 -8
114 31 -8
115 31 -8
116 31 -8
117 31 -8
118 31 -8
119 31 -8
120 31 -8
121 -32 -19
122 -32 -19
123 -32 -19
124 -32 -19
125 30 39
126 30 39
127 30 39
128 30 39
129 30 39
130 40 26
131 40 26
132 40 26
133 40 26
134 40 26
135 40 26
136 -14 -39
137 -14 -39
138 -14 -39
139 -14 -39
140 -14 -39
141 -14 -39
142 -14 -39
143 -14 -39
144 50 -38
145 50 -38
146 50 -38
147 -12 -47
148 -12 -47
149 -12 -47
150 -12 -47
151 -12 -47
152 -12 -47
153 -12 -47
154 6 -4
155 6 -4
156 6 -4
157 47 16
158 47 16
159 47 16
160 -31 9
161 -31 9
162 -31 9
163 -31 9
164 8 -47
165 8 -47
166 8 -47
167 8 -47
168 8 -47
169 41 48
170 41 48
171 41 48
172 41 48
173 41 48
174 -46 -28
175 -46 -28
176 -46 -28
177 -46 -28
178 -46 -28
179 -46 -28
180 27 -14
181 27 -14
182 27 -14
183 27 -14
184 27 -14
185 27 -14
186 19 39
187 19 39
188 19 39
189 19 39
190 19 39
191 19 39
192 19 39
193 3 45
194 3 45
195 3 45
196 3 45
197 3 45
198 3 45
199 3 45
200 3 45
201 -8 28
202 -8 28
203 -8 28
204 -8 28
205 -8 28
206 -8 28
207 47 5
208 47 5
209 47 5
210 47 5
211 47 5
212 41 38
213 41 38
214 41 38
215 41 38
216 41 38
217 41 38
218 46 -28
219 46 -28
220 46 -28
221 46 -28
222 46 -28
223 46 -28
224 6 30
225 6 30
226 6 30
227 6 30
228 6 30
229 6 30
230 -16 -33
231 -16 -33
232 -16 -33
233 -16 -33
234 -16 -33
235 -30 -16
236 -30 -16
237 -30 -16
238 -30 -16
239 -30 -16
240 -30 -16
241 -30 -16
242 11 37
243 11 37
244 11 37
245 11 37
246 18 47
247 18 47
248 18 47
249 0 18
250 0 18
251 0 18
252 0 18
253 0 18
254 0 18
255 0 -46
256 0 -46
257 0 -46
258 0 -46
259 -20 8
260 -20 8
261 -20 8
262 -20 8
263 -20 8
264 17 -1
265 17 -1
266 17 -1
267 17 -1
268 17 -1
269 17 -1
270 17 -1
271 -38 -18
272 -38 -18
273 -38 -18
274 -38 -18
275 -38 -18
276 -38 -18
277 -38 -18
278 -38 -18
279 -33 -45
280 -33 -45
281 -33 -45
282 -33 -45
283 -33 -45
284 -13 -17
285 -13 -17
286 -13 -17
287 -13 -17
288 18 22
289 18 22
290 18 22
291 18 22
292 18 22
293 18 22
294 13 -39
295 13 -39
296 13 -39
297 13 -39
298 30 35
299 30 35
300 30 35
301 30 35
302 -26 -24
303 -26 -24
304 -26 -24
305 -26 -24
306 -26 -24
307 -26 -24
308 -26 -24
309 -26 -24
310 46 -1
311 46 -1
312 46 -1
313 46 -1
314 46 -1
315 46 -1
316 -45 49
317 -45 49
318 -45 49
319 -45 49
320 -45 49
321 -45 49
322 -45 49
323 -45 49
324 -22 -36
325 -22 -36
326 -22 -36
327 -22 -36
328 -22 -36
329 44 -21
330 44 -21
331 44 -21
332 44 -21
333 44 -21
334 39 -37
335 39 -37
336 39 -37
337 -18 -4
338 -18 -4
339 -18 -4
340 -18 -4
341 -18 -4
342 -18 -4
343 -38 9
344 -38 9
345 -38 9
346 -38 9
347 -38 9
348 -38 9
349 -40 -30
350 -40 -30
351 -40 -30
352 -40 -30
353 -40 -30
354 -40 -30
355 -40 -30
356 8 34
357 8 34
358 8 34
359 -31 -35
360 -31 -35
361 -31 -35
362 -31 -35
363 -31 -35
364 -31 -35
365 18 -49
366 18 -49
367 48 10
368 48 10
369 48 10
370 48 10
371 48 10
372 48 10
373 18 -26
374 18 -26
375 18 -26
376 18 -26
377 18 -26
378 18 -26
379 18 -26
380 22 17
381 22 17
382 22 17
383 22 17
384 22 17
385 -43 42
386 -43 42
387 -43 42
388 -43 42
389 40 -9
390 -11 -41
391 -11 -41
392 -11 -41
393 -11 -41
394 -11 -41
395 -11 -41
396 -30 9
397 -30 9
398 -30 9
399 -38 49
400 -38 49
401 -38 49
402 -38 49
403 13 2
404 13 2
405 13 2
406 13 2
407 13 2
408 17 -2
409 17 -2
410 17 -2
411 17 -2
412 8 -3
413 8 -3
414 8 -3
415 8 -3
416 -21 -35
417 -21 -35
418 -21 -35
419 -21 -35
420 -21 -35
421 -21 -35
422 -21 -35
423 -39 37
424 -39 37
425 39 22
426 39 22
427 39 22
428 39 22
429 39 22
430 39 22
431 -9 -35
432 -9 -35
433 -9 -35
434 35 -26
435 35 -26
436 35 -26
437 18 -21
438 18 -21
439 18 -21
440 -4 -7
441 -4 -7
442 -4 -7
443 -4 -7
444 -4 -7
445 -50 24
446 -50 24
447 -50 24
448 -50 24
449 -50 24
450 -50 24
451 39 25
452 39 25
453 39 25
454 39 25
455 39 25
456 39 25
457 39 25
458 39 25
459 -37 -26
460 -37 -26
461 -37 -26
462 -37 -26
463 -9 37
464 -9 37
465 -9 37
466 -9 37
467 -9 37
468 3 -50
469 3 -50
470 3 -50
471 3 -50
472 3 -50
473 -10 6
474 -10 6
475 -10 6
476 -10 6
477 -10 6
478 -10 6
479 21 -14
480 21 -14
481 21 -14
482 21 -14
483 -50 -12
484 -50 -12
485 -50 -12
486 -50 -12
487 -50 -12
488 -50 -12
489 -50 29
490 -50 29
491 -50 29
492 -50 29
493 21 35
494 21 35
495 21 35
496 30 50
497 30 50
498 30 50
499 30 50
500 30 50
501 26 -16
502 26 -16
503 26 -16
504 26 -16
505 26 -16
506 10 -5
507 10 -5
508 -6 47
509 -6 47
510 -6 47
511 -6 47
512 -6 47
513 -6 47
514 -26 10
515 -26 10
516 -26 10
517 -26 10
518 -26 10
519 -26 10
520 29 12
521 29 12
522 29 12
523 -29 42
524 -29 42
525 -39 -43
526 -39 -43
527 -39 -43
528 47 -35
529 47 -35
530 36 15
531 36 15
532 36 15
533 12 -28
534 12 -28
535 20 42
536 20 42
537 20 42
538 20 42
539 -20 -49
540 -20 -49
541 -20 -49
542 -20 -49
543 -20 -49
544 -20 -49
545 3 -20
546 3 -20
547 3 -20
548 -36 4
549 -36 4
550 -36 4
551 -36 4
552 -14 -10
553 -14 -10
554 -14 -10
555 -14 -10
556 42 -2
557 42 -2
558 42 -2
559 42 -2
560 42 -2
561 42 -2
562 16 2
563 16 2
564 16 2
565 16 2
566 16 2
567 16 2
568 -15 -42
569 -15 -42
570 -15 -42
571 -15 -42
572 -15 -42
573 -15 -42
574 -15 -42
575 45 25
576 45 25
577 45 25
578 45 25
579 45 25
580 -26 12
581 -26 12
582 -26 12
583 -26 12
584 -26 12
585 -26 12
586 -11 20
587 -11 20
588 -11 20
589 -11 20
590 -11 20
591 -11 20
592 -11 20
593 -37 -33
594 -37 -33
595 -37 -33
596 -37 -33
597 -37 -33
598 -43 40
599 -48 -21
600 -48 -21
601 -48 -21
602 -48 -21
603 -48 -21
604 -48 -21
605 -50 4
606 -50 4
607 -50 4
608 -50 4
609 -50 4
610 29 -35
611 29 -35
612 29 -35
613 29 -35
614 -5 -48
615 -5 -48
616 -5 -48
617 -5 -48
618 -45 47
619 -45 47
620 -45 47
621 -45 47
622 -45 47
623 34 -34
624 34 -34
625 34 -34
626 34 -34
627 34 -34
628 -19 31
629 -19 31
630 -19 31
631 -19 31
632 27 35
633 27 35
634 27 35
635 27 35
636 27 35
637 27 35
638 45 26
639 45 26
640 45 26
641 45 26
642 45 26
643 45 26
644 37 39
645 37 39
646 37 39
647 37 39
648 37 39
649 37 39
650 37 39
651 16 14
652 16 14
653 16 14
654 16 14
655 16 14
656 16 14
657 16 14
658 45 -27
659 45 -27
660 45 -27
661 45 -27
662 45 -27
663 45 -27
664 -16 -45
665 -16 -45
666 -16 -45
667 -16 -45
668 28 -6
669 28 -6
670 28 -6
671 28 -6
672 -50 29
673 -50 29
674 -50 29
675 -50 29
676 -50 29
677 39 -9
678 39 -9
679 39 -9
680 39 -9
681 39 -9
682 39 -9
683 -11 36
684 -11 36
685 -10 -23
686 -10 -23
687 5 33
688 5 33
689 5 33
690 5 33
691 5 33
692 5 33
693 14 1
694 14 1
695 14 1
696 14 1
697 14 1
698 30 -31
699 30 -31
700 30 -31
701 30 -31
702 30 -31
703 30 -31
704 10 10
705 10 10
706 -8 38
707 -8 38
708 -8 38
709 -8 38
710 1 40
711 1 40
712 1 40
713 1 40
714 1 40
715 48 20
716 48 20
717 48 20
718 48 20
719 48 20
720 -21 26
721 -21 26
722 -21 26
723 -21 26
DEMAND_SECTION
1 0
2 400
3 100
4 20
5 10
6 400
7 20
8 20
9 20
10 20
11 10
12 400
13 200
14 200
15 100
16 20
17 20
18 20
19 400
20 200
21 20
22 20
23 20
24 20
25 10
26 400
27 20
28 20
29 20
30 10
31 400
32 200
33 100
34 20
35 20
36 20
37 10
38 400
39 400
40 100
41 20
42 20
43 20
44 20
45 400
46 100
47 20
48 20
49 20
50 20
51 400
52 400
53 100
54 20
55 20
56 400
57 400
58 100
59 400
60 200
61 100
62 400
63 20
64 400
65 100
66 20
67 400
68 400
69 100
70 20
71 10
72 400
73 10
74 400
75 400
76 100
77 20
78 20
79 20
80 200
81 100
82 400
83 400
84 100
85 20
86 20
87 400
88 400
89 100
90 20
91 20
92 10
93 400
94 400
95 20
96 20
97 20
98 400
99 100
100 10
101 200
102 100
103 20
104 20
105 400
106 200
107 100
108 10
109 400
110 400
111 100
112 20
113 400
114 400
115 100
116 20
117 20
118 20
119 20
120 10
121 400
122 400
123 20
124 10
125 400
126 400
127 20
128 20
129 20
130 400
131 20
132 20
133 20
134 20
135 10
136 400
137 400
138 100
139 20
140 20
141 20
142 20
143 10
144 400
145 200
146 100
147 400
148 400
149 20
150 20
151 20
152 20
153 10
154 200
155 100
156 10
157 400
158 200
159 20
160 200
161 20
162 20
163 10
164 200
165 20
166 20
167 20
168 10
169 400
170 200
171 100
172 20
173 10
174 400
175 400
176 100
177 20
178 20
179 10
180 200
181 20
182 20
183 20
184 20
185 10
186 400
187 200
188 20
189 20
190 20
191 20
192 10
193 400
194 200
195 100
196 20
197 20
198 20
199 20
200 10
201 200
202 100
203 20
204 20
205 20
206 20
207 200
208 100
209 20
210 20
211 10
212 200
213 100
214 20
215 20
216 20
217 10
218 400
219 400
220 20
221 20
222 20
223 10
224 400
225 400
226 20
227 20
228 20
229 20
230 200
231 20
232 20
233 20
234 20
235 400
236 100
237 20
238 20
239 20
240 20
241 10
242 400
243 200
244 100
245 20
246 400
247 20
248 10
249 400
250 400
251 100
252 20
253 20
254 10
255 400
256 400
257 20
258 10
259 400
260 200
261 20
262 20
263 10
264 400
265 200
266 100
267 20
268 20
269 20
270 10
271 400
272 200
273 100
274 20
275 20
276 20
277 20
278 10
279 400
280 100
281 20
282 20
283 10
284 400
285 400
286 100
287 20
288 400
289 400
290 20
291 20
292 20
293 10
294 200
295 20
296 20
297 20
298 400
299 400
300 20
301 20
302 400
303 200
304 100
305 20
306 20
307 20
308 20
309 10
310 400
311 100
312 20
313 20
314 20
315 20
316 400
317 400
318 100
319 20
320 20
321 20
322 20
323 10
324 400
325 20
326 20
327 20
328 20
329 200
330 100
331 20
332 20
333 10
334 200
335 100
336 10
337 400
338 100
339 20
340 20
341 20
342 10
343 400
344 400
345 20
346 20
347 20
348 20
349 200
350 100
351 20
352 20
353 20
354 20
355 10
356 200
357 100
358 10
359 200
360 20
361 20
362 20
363 20
364 10
365 400
366 100
367 400
368 400
369 100
370 20
371 20
372 20
373 400
374 100
375 20
376 20
377 20
378 20
379 10
380 200
381 20
382 20
383 20
384 20
385 400
386 20
387 20
388 20
389 400
390 400
391 200
392 20
393 20
394 20
395 10
396 200
397 100
398 20
399 400
400 100
401 20
402 20
403 400
404 200
405 100
406 20
407 20
408 400
409 200
410 100
411 20
412 400
413 100
414 20
415 10
416 400
417 200
418 100
419 20
420 20
421 20
422 20
423 400
424 100
425 400
426 100
427 20
428 20
429 20
430 20
431 400
432 200
433 20
434 400
435 20
436 20
437 400
438 100
439 10
440 400
441 400
442 100
443 20
444 10
445 400
446 400
447 20
448 20
449 20
450 20
451 400
452 400
453 100
454 20
455 20
456 20
457 20
458 10
459 200
460 20
461 20
462 10
463 400
464 100
465 20
466 20
467 20
468 400
469 200
470 100
471 20
472 10
473 200
474 20
475 20
476 20
477 20
478 10
479 400
480 200
481 20
482 20
483 200
484 20
485 20
486 20
487 20
488 10
489 200
490 20
491 20
492 20
493 400
494 100
495 10
496 400
497 400
498 20
499 20
500 20
501 400
502 400
503 20
504 20
505 10
506 400
507 20
508 400
509 20
510 20
511 20
512 20
513 10
514 400
515 400
516 100
517 20
518 20
519 10
520 400
521 400
522 100
523 400
524 200
525 400
526 200
527 100
528 400
529 400
530 400
531 200
532 10
533 200
534 100
535 400
536 400
537 100
538 10
539 400
540 200
541 20
542 20
543 20
544 20
545 400
546 100
547 10
548 200
549 100
550 20
551 10
552 400
553 400
554 100
555 20
556 200
557 20
558 20
559 20
560 20
561 10
562 400
563 400
564 20
565 20
566 20
567 10
568 400
569 200
570 100
571 20
572 20
573 20
574 10
575 400
576 200
577 100
578 20
579 10
580 400
581 200
582 20
583 20
584 20
585 10
586 400
587 400
588 100
589 20
590 20
591 20
592 10
593 400
594 100
595 20
596 20
597 10
598 400
599 400
600 200
601 20
602 20
603 20
604 10
605 400
606 200
607 100
608 20
609 20
610 400
611 400
612 100
613 10
614 400
615 400
616 20
617 20
618 400
619 200
620 100
621 20
622 20
623 400
624 200
625 100
626 20
627 10
628 400
629 20
630 20
631 10
632 400
633 400
634 20
635 20
636 20
637 20
638 400
639 200
640 100
641 20
642 20
643 10
644 400
645 200
646 100
647 20
648 20
649 20
650 20
651 400
652 400
653 100
654 20
655 20
656 20
657 10
658 400
659 400
660 20
661 20
662 20
663 10
664 200
665 100
666 20
667 10
668 400
669 400
670 100
671 10
672 400
673 200
674 100
675 20
676 20
677 400
678 200
679 20
680 20
681 20
682 20
683 400
684 400
685 200
686 100
687 400
688 400
689 100
690 20
691 20
692 10
693 400
694 200
695 20
696 20
697 10
698 200
699 100
700 20
701 20
702 20
703 10
704 400
705 10
706 200
707 20
708 20
709 20
710 400
711 400
712 100
713 20
714 20
715 200
716 20
717 20
718 20
719 10
720 400
721 100
722 20
723 20
DEPOT_SECTION
1
-1
EOF