SDVRP instances/custom_instances/p04_23_splitx10_0.sol
722 -8 10 282 281 278 279 280 93 95 92 94 96 324 327 325 326 323 -11 12 195 192 193 194 199 196 198 197 512 507 510 508 511 509 -23 24 21 22 18 19 20 506 505 411 413 414 412 -31 35 34 36 33 32 30 650 651 704 703 -41 42 43 37 39 40 38 187 191 188 492 494 493 289 287 291 -48 46 49 47 667 669 668 670 112 113 116 114 117 119 115 118 -50 52 482 483 485 487 484 486 601 598 600 602 603 599 85 81 -51 54 53 25 28 29 26 27 606 604 605 607 608 550 548 549 547 -55 57 56 84 82 83 275 270 240 239 554 553 -58 59 60 332 330 328 331 329 657 658 661 662 660 659 -63 720 719 722 721 523 522 628 630 629 627 -64 65 320 316 322 321 315 317 318 319 617 621 620 619 618 -69 68 67 66 70 91 86 88 89 90 87 -80 714 715 716 717 718 577 576 574 575 578 639 641 638 642 637 640 427 425 -111 109 110 108 546 545 544 443 439 442 441 -123 120 121 122 236 234 237 235 238 337 339 340 341 338 336 -128 126 127 124 125 643 648 649 645 644 212 215 214 213 216 211 -142 139 571 568 570 569 567 572 573 666 664 665 663 392 393 390 432 430 431 -144 13 14 16 143 145 17 15 528 527 154 155 -148 147 146 150 151 152 149 538 541 539 540 543 542 106 105 107 285 286 -153 479 478 481 480 501 500 503 504 502 180 179 181 184 183 182 -156 158 157 367 371 369 366 370 368 210 208 207 209 206 -186 190 185 189 535 534 536 537 246 245 247 -204 203 201 205 200 202 682 683 465 464 462 463 466 707 705 708 706 -222 221 218 217 220 219 334 335 333 622 624 623 625 626 701 700 -225 226 227 228 224 223 98 99 97 292 290 288 652 654 656 653 655 -244 241 243 242 77 73 74 78 75 76 355 357 356 -250 251 253 252 249 248 586 587 588 585 590 591 589 -254 167 166 163 164 165 365 364 61 62 294 295 296 293 533 -256 255 257 468 467 469 470 471 615 614 613 616 -259 261 262 258 260 513 517 518 516 580 579 583 582 584 581 477 472 476 -268 269 265 266 267 263 264 45 44 409 407 410 408 -274 272 277 276 271 273 174 173 175 176 178 177 351 348 349 354 353 350 352 460 458 459 461 -301 305 308 307 302 306 304 303 104 421 419 418 420 417 416 415 -344 346 347 343 342 345 161 162 159 160 396 397 395 515 514 -362 358 361 360 359 363 7 6 5 9 526 524 525 596 592 595 593 594 -374 378 372 377 375 373 376 2 3 1 4 71 72 433 434 435 -383 381 379 380 382 300 297 299 298 632 633 636 634 631 635 -391 389 394 141 137 136 138 135 140 230 233 231 232 229 684 685 -401 400 398 399 386 384 387 385 597 423 422 -402 404 564 562 561 565 566 695 694 696 693 692 -405 406 403 563 79 529 531 530 520 521 519 -426 424 428 429 134 129 132 130 131 133 450 456 453 457 454 455 452 451 -437 438 436 699 698 697 702 612 609 610 611 532 -440 284 283 552 551 -444 446 445 447 448 449 489 488 672 671 490 675 673 491 674 473 475 474 -498 497 495 496 499 171 172 170 168 169 100 102 101 103 646 647 -559 560 557 558 555 556 312 310 314 311 309 313 388 681 680 679 677 678 676 -687 690 691 688 689 686 710 712 709 711 713 0 





OBJ=
4465.299
BEST_KNOWN=
0.000